WARNING: for repeatability, setting FPU to use double precision
============================[ Problem Statistics ]=============================
|                                                                             |
|  Number of variables:           243                                         |
|  Number of clauses:             888                                         |
|  Parse time:                   0.00 s                                       |
|                                                                             |
============================[ Search Statistics ]==============================
| Conflicts |          ORIGINAL         |          LEARNT          | Progress |
|           |    Vars  Clauses Literals |    Limit  Clauses Lit/Cl |          |
===============================================================================
===============================================================================
restarts              : 1
conflicts             : 11             (inf /sec)
decisions             : 11             (0.00 % random) (inf /sec)
propagations          : 666            (inf /sec)
conflict literals     : 25             (34.21 % deleted)
Memory used           : 19.00 MB
CPU time              : 0 s

UNSATISFIABLE
